[2026-03-24T00:43:48.540Z] Pipeline "set_prova_set_prova_set_s005_g002" → 2026_03_24_00_43_48_set_prova_set_prova_set_s005_g002_max.sol
Set parameter WLSAccessID
Set parameter WLSSecret
Set parameter LicenseID to value 2792458
Set parameter LogFile to value "gurobi.log"
Using license file /root/gurobi.lic
Academic license 2792458 - for non-commercial use only - registered to an___@studenti.unipg.it

Gurobi Optimizer version 13.0.1 build v13.0.1rc0 (linux64 - "Ubuntu 24.04.4 LTS")
Copyright (c) 2026, Gurobi Optimization, LLC

Warning: Duplicate section found (read 'binary') - Is a variable name equal to an LP file format keyword?
Warning: Duplicate section found (read 'binary') - Is a variable name equal to an LP file format keyword?
Warning: Duplicate section found (read 'binary') - Is a variable name equal to an LP file format keyword?
Warning: Duplicate section found (read 'binary') - Is a variable name equal to an LP file format keyword?
Warning: Duplicate section found (read 'binary') - Is a variable name equal to an LP file format keyword?
Warning: Duplicate section found (read 'binary') - Is a variable name equal to an LP file format keyword?
Warning: Duplicate section found (read 'binary') - Is a variable name equal to an LP file format keyword?
Warning: Duplicate section found (read 'binary') - Is a variable name equal to an LP file format keyword?
Warning: Duplicate section found (read 'binary') - Is a variable name equal to an LP file format keyword?
Warning: Duplicate section found (read 'binary') - Is a variable name equal to an LP file format keyword?
Warning: Further warnings of this type will be omitted.
Read LP format model from file /root/bgw/data/uploads/2026_03_24_00_43_48_set_prova_set_prova_set_s005_g002_max.lp
Reading time = 0.00 seconds
: 2921 rows, 287 columns, 8920 nonzeros

Using Gurobi shared library /opt/gurobi1301/linux64/lib/libgurobi.so.13.0.1

CPU model: AMD EPYC-Genoa Processor, instruction set [SSE2|AVX|AVX2|AVX512]
Thread count: 16 physical cores, 16 logical processors, using up to 16 threads

Academic license 2792458 - for non-commercial use only - registered to an___@studenti.unipg.it
Optimize a model with 2921 rows, 287 columns and 8920 nonzeros (Max)
Model fingerprint: 0x3a036192
Model has 8 linear objective coefficients
Variable types: 29 continuous, 258 integer (258 binary)
Coefficient statistics:
  Matrix range     [1e+00, 2e+01]
  Objective range  [1e+00, 1e+00]
  Bounds range     [1e+00, 1e+00]
  RHS range        [1e+00, 2e+01]

Found heuristic solution: objective 8.0000000
Presolve removed 223 rows and 53 columns
Presolve time: 0.01s
Presolved: 2698 rows, 234 columns, 8274 nonzeros
Variable types: 0 continuous, 234 integer (224 binary)

Root relaxation: objective 3.500000e+01, 218 iterations, 0.01 seconds (0.01 work units)

    Nodes    |    Current Node    |     Objective Bounds      |     Work
 Expl Unexpl |  Obj  Depth IntInf | Incumbent    BestBd   Gap | It/Node Time

     0     0   35.00000    0   30    8.00000   35.00000   338%     -    0s
H    0     0                      18.0000000   35.00000  94.4%     -    0s
H    0     0                      19.0000000   35.00000  84.2%     -    0s
H    0     0                      20.0000000   35.00000  75.0%     -    0s
     0     0   35.00000    0   29   20.00000   35.00000  75.0%     -    0s
H    0     0                      21.0000000   35.00000  66.7%     -    0s
H    0     0                      22.0000000   35.00000  59.1%     -    0s
     0     0   35.00000    0   26   22.00000   35.00000  59.1%     -    0s
     0     0   35.00000    0   25   22.00000   35.00000  59.1%     -    0s
     0     0   35.00000    0   22   22.00000   35.00000  59.1%     -    0s
H    0     0                      23.0000000   35.00000  52.2%     -    0s
     0     0   35.00000    0   24   23.00000   35.00000  52.2%     -    0s
     0     0   35.00000    0   24   23.00000   35.00000  52.2%     -    0s
     0     0   32.00000    0   26   23.00000   32.00000  39.1%     -    0s
     0     0   32.00000    0   25   23.00000   32.00000  39.1%     -    0s
     0     0   32.00000    0   28   23.00000   32.00000  39.1%     -    0s
     0     0   32.00000    0   25   23.00000   32.00000  39.1%     -    0s
     0     0   32.00000    0   27   23.00000   32.00000  39.1%     -    0s
     0     0   32.00000    0   26   23.00000   32.00000  39.1%     -    0s
     0     0   32.00000    0   25   23.00000   32.00000  39.1%     -    0s
     0     0   32.00000    0   28   23.00000   32.00000  39.1%     -    0s
     0     0   32.00000    0   25   23.00000   32.00000  39.1%     -    0s
     0     0   31.84211    0   25   23.00000   31.84211  38.4%     -    0s
     0     0   31.84211    0   25   23.00000   31.84211  38.4%     -    0s
     0     2   31.84211    0   23   23.00000   31.84211  38.4%     -    0s

Cutting planes:
  Gomory: 2
  Cover: 14
  MIR: 5
  StrongCG: 1
  Inf proof: 42
  Zero half: 4

Explored 2760 nodes (186300 simplex iterations) in 1.32 seconds (1.74 work units)
Thread count was 16 (of 16 available processors)

Solution count 7: 23 22 21 ... 8

Optimal solution found (tolerance 1.00e-04)
Best objective 2.300000000000e+01, best bound 2.300000000000e+01, gap 0.0000%

Wrote result file '/root/bgw/data/results/2026_03_24_00_43_48_set_prova_set_prova_set_s005_g002_max.sol'

